597,939
540,600
505,648
639,448
364,-30
399,794
861,406
893,618
575,460
464,833
1020,67
639,672
699,463
567,443
396,498
415,599
756,-68
518,726
563,388
789,193
597,-127
281,610
1036,462
738,424
711,406
390,617
533,554
